Route #1: 26 32 17 10 36 1 48 16 43
Route #2: 52 50 37 5 46 54
Route #3: 57 11 63 25 42 28
Route #4: 34 14 47 4 60 55 65 27
Route #5: 19 31 18 64 61 21 67 7
Route #6: 44 15 3 51 6 30 9 49 33 2 53
Route #7: 24 22 12 23
Route #8: 29 40 38 59 41 20 45 35 13 66 58
Route #9: 68 8 39 56 62
Cost 1165
Time 0.203865
